c ind 10 117 159 161 163 165 167 169 171 173 0
c ind 175 177 179 181 183 185 187 189 191 193 0
c ind 195 197 199 20 201 203 205 207 209 211 0
c ind 213 215 217 219 22 221 24 254 256 258 0
c ind 26 260 262 264 266 268 270 272 274 276 0
c ind 278 28 280 282 284 286 288 290 292 294 0
c ind 296 298 30 300 302 304 306 308 310 312 0
c ind 314 316 32 34 46 5 6 805 84 857 0
c ind 86 865 869 0
p cnf 869 2929
-1 -2 806 0
-1 2 859 0
-100 63 0
-100 71 0
-101 -102 72 0
-101 102 108 0
-102 103 0
-102 33 0
-103 104 0
-103 31 0
-104 105 0
-104 29 0
-105 106 0
-105 27 0
-106 107 0
-106 17 0
-107 -10 26 0
-107 -26 10 0
-108 -109 114 0
-108 109 118 0
-109 110 0
-109 33 0
-11 -12 8 0
-11 12 35 0
-110 111 0
-110 31 0
-111 112 0
-111 29 0
-112 113 0
-112 27 0
-113 107 0
-113 41 0
-114 -115 8 0
-114 115 44 0
-115 116 83 0
-116 -10 117 0
-116 -117 10 0
-118 -119 124 0
-118 119 317 0
-119 120 0
-119 33 0
-12 13 0
-12 33 0
-120 121 0
-120 31 0
-121 122 0
-121 29 0
-122 123 0
-122 16 0
-123 -10 28 0
-123 -28 10 0
-124 -115 8 0
-124 115 125 0
-125 -126 8 0
-125 126 44 0
-126 127 0
-126 222 0
-127 128 0
-127 220 0
-128 129 0
-128 218 0
-129 130 0
-129 216 0
-13 14 0
-13 31 0
-130 131 0
-130 214 0
-131 132 0
-131 212 0
-132 133 0
-132 210 0
-133 134 0
-133 208 0
-134 135 0
-134 206 0
-135 136 0
-135 204 0
-136 137 0
-136 202 0
-137 138 0
-137 200 0
-138 139 0
-138 198 0
-139 140 0
-139 196 0
-14 15 0
-14 29 0
-140 141 0
-140 194 0
-141 142 0
-141 192 0
-142 143 0
-142 190 0
-143 144 0
-143 188 0
-144 145 0
-144 186 0
-145 146 0
-145 184 0
-146 147 0
-146 182 0
-147 148 0
-147 180 0
-148 149 0
-148 178 0
-149 150 0
-149 176 0
-15 16 0
-15 27 0
-150 151 0
-150 174 0
-151 152 0
-151 172 0
-152 153 0
-152 170 0
-153 154 0
-153 168 0
-154 155 0
-154 166 0
-155 156 0
-155 164 0
-156 157 0
-156 162 0
-157 158 0
-157 160 0
-158 -159 6 0
-158 -6 159 0
-16 17 0
-16 25 0
-160 -161 6 0
-160 -6 161 0
-162 -163 6 0
-162 -6 163 0
-164 -165 6 0
-164 -6 165 0
-166 -167 6 0
-166 -6 167 0
-168 -169 6 0
-168 -6 169 0
-17 18 0
-17 23 0
-170 -171 6 0
-170 -6 171 0
-172 -173 6 0
-172 -6 173 0
-174 -175 6 0
-174 -6 175 0
-176 -177 6 0
-176 -6 177 0
-178 -179 6 0
-178 -6 179 0
-18 19 0
-18 21 0
-180 -181 6 0
-180 -6 181 0
-182 -183 6 0
-182 -6 183 0
-184 -185 6 0
-184 -6 185 0
-186 -187 6 0
-186 -6 187 0
-188 -189 6 0
-188 -6 189 0
-19 -20 6 0
-19 -6 20 0
-190 -191 6 0
-190 -6 191 0
-192 -193 6 0
-192 -6 193 0
-194 -195 6 0
-194 -6 195 0
-196 -197 6 0
-196 -6 197 0
-198 -199 6 0
-198 -6 199 0
-2 3 803 0
-200 -201 6 0
-200 -6 201 0
-202 -203 6 0
-202 -6 203 0
-204 -205 6 0
-204 -6 205 0
-206 -207 6 0
-206 -6 207 0
-208 -209 6 0
-208 -6 209 0
-21 -22 6 0
-21 -6 22 0
-210 -211 6 0
-210 -6 211 0
-212 -213 6 0
-212 -6 213 0
-214 -215 6 0
-214 -6 215 0
-216 -217 6 0
-216 -6 217 0
-218 -219 6 0
-218 -6 219 0
-220 -221 6 0
-220 -6 221 0
-222 223 0
-222 315 0
-223 224 0
-223 313 0
-224 225 0
-224 311 0
-225 226 0
-225 309 0
-226 227 0
-226 307 0
-227 228 0
-227 305 0
-228 229 0
-228 303 0
-229 230 0
-229 301 0
-23 -24 6 0
-23 -6 24 0
-230 231 0
-230 299 0
-231 232 0
-231 297 0
-232 233 0
-232 295 0
-233 234 0
-233 293 0
-234 235 0
-234 291 0
-235 236 0
-235 289 0
-236 237 0
-236 287 0
-237 238 0
-237 285 0
-238 239 0
-238 283 0
-239 240 0
-239 281 0
-240 241 0
-240 279 0
-241 242 0
-241 277 0
-242 243 0
-242 275 0
-243 244 0
-243 273 0
-244 245 0
-244 271 0
-245 246 0
-245 269 0
-246 247 0
-246 267 0
-247 248 0
-247 265 0
-248 249 0
-248 263 0
-249 250 0
-249 261 0
-25 -26 6 0
-25 -6 26 0
-250 251 0
-250 259 0
-251 252 0
-251 257 0
-252 253 0
-252 255 0
-253 -254 6 0
-253 -6 254 0
-255 -256 6 0
-255 -6 256 0
-257 -258 6 0
-257 -6 258 0
-259 -260 6 0
-259 -6 260 0
-261 -262 6 0
-261 -6 262 0
-263 -264 6 0
-263 -6 264 0
-265 -266 6 0
-265 -6 266 0
-267 -268 6 0
-267 -6 268 0
-269 -270 6 0
-269 -6 270 0
-27 -28 6 0
-27 -6 28 0
-271 -272 6 0
-271 -6 272 0
-273 -274 6 0
-273 -6 274 0
-275 -276 6 0
-275 -6 276 0
-277 -278 6 0
-277 -6 278 0
-279 -280 6 0
-279 -6 280 0
-281 -282 6 0
-281 -6 282 0
-283 -284 6 0
-283 -6 284 0
-285 -286 6 0
-285 -6 286 0
-287 -288 6 0
-287 -6 288 0
-289 -290 6 0
-289 -6 290 0
-29 -30 6 0
-29 -6 30 0
-291 -292 6 0
-291 -6 292 0
-293 -294 6 0
-293 -6 294 0
-295 -296 6 0
-295 -6 296 0
-297 -298 6 0
-297 -6 298 0
-299 -300 6 0
-299 -6 300 0
-3 -4 7 0
-3 4 651 0
-301 -302 6 0
-301 -6 302 0
-303 -304 6 0
-303 -6 304 0
-305 -306 6 0
-305 -6 306 0
-307 -308 6 0
-307 -6 308 0
-309 -310 6 0
-309 -6 310 0
-31 -32 6 0
-31 -6 32 0
-311 -312 6 0
-311 -6 312 0
-313 -314 6 0
-313 -6 314 0
-315 -316 6 0
-315 -6 316 0
-317 -318 322 0
-317 318 356 0
-318 319 0
-318 33 0
-319 31 0
-319 320 0
-320 29 0
-320 321 0
-321 123 0
-321 40 0
-322 -115 8 0
-322 115 323 0
-323 -324 8 0
-323 324 44 0
-324 220 0
-324 325 0
-325 218 0
-325 326 0
-326 216 0
-326 327 0
-327 214 0
-327 328 0
-328 212 0
-328 329 0
-329 210 0
-329 330 0
-33 -34 6 0
-33 -6 34 0
-330 208 0
-330 331 0
-331 206 0
-331 332 0
-332 204 0
-332 333 0
-333 202 0
-333 334 0
-334 200 0
-334 335 0
-335 198 0
-335 336 0
-336 196 0
-336 337 0
-337 194 0
-337 338 0
-338 192 0
-338 339 0
-339 190 0
-339 340 0
-340 188 0
-340 341 0
-341 186 0
-341 342 0
-342 184 0
-342 343 0
-343 182 0
-343 344 0
-344 180 0
-344 345 0
-345 178 0
-345 346 0
-346 176 0
-346 347 0
-347 174 0
-347 348 0
-348 172 0
-348 349 0
-349 170 0
-349 350 0
-35 -36 44 0
-35 36 47 0
-350 168 0
-350 351 0
-351 166 0
-351 352 0
-352 164 0
-352 353 0
-353 162 0
-353 354 0
-354 160 0
-354 355 0
-355 -10 159 0
-355 -159 10 0
-356 -357 361 0
-356 357 428 0
-357 33 0
-357 358 0
-358 31 0
-358 359 0
-359 29 0
-359 360 0
-36 33 0
-36 37 0
-360 123 0
-360 52 0
-361 -115 8 0
-361 115 362 0
-362 -363 8 0
-362 363 44 0
-363 364 0
-363 396 0
-364 220 0
-364 365 0
-365 218 0
-365 366 0
-366 216 0
-366 367 0
-367 214 0
-367 368 0
-368 212 0
-368 369 0
-369 210 0
-369 370 0
-37 31 0
-37 38 0
-370 208 0
-370 371 0
-371 206 0
-371 372 0
-372 204 0
-372 373 0
-373 202 0
-373 374 0
-374 200 0
-374 375 0
-375 198 0
-375 376 0
-376 196 0
-376 377 0
-377 194 0
-377 378 0
-378 192 0
-378 379 0
-379 190 0
-379 380 0
-38 29 0
-38 39 0
-380 188 0
-380 381 0
-381 186 0
-381 382 0
-382 184 0
-382 383 0
-383 182 0
-383 384 0
-384 180 0
-384 385 0
-385 178 0
-385 386 0
-386 176 0
-386 387 0
-387 174 0
-387 388 0
-388 172 0
-388 389 0
-389 170 0
-389 390 0
-39 27 0
-39 40 0
-390 168 0
-390 391 0
-391 166 0
-391 392 0
-392 164 0
-392 393 0
-393 162 0
-393 394 0
-394 158 0
-394 395 0
-395 -10 161 0
-395 -161 10 0
-396 315 0
-396 397 0
-397 313 0
-397 398 0
-398 311 0
-398 399 0
-399 309 0
-399 400 0
-4 -5 6 0
-4 -6 5 0
-40 25 0
-40 41 0
-400 307 0
-400 401 0
-401 305 0
-401 402 0
-402 303 0
-402 403 0
-403 301 0
-403 404 0
-404 299 0
-404 405 0
-405 297 0
-405 406 0
-406 295 0
-406 407 0
-407 293 0
-407 408 0
-408 291 0
-408 409 0
-409 289 0
-409 410 0
-41 23 0
-41 42 0
-410 287 0
-410 411 0
-411 285 0
-411 412 0
-412 283 0
-412 413 0
-413 281 0
-413 414 0
-414 279 0
-414 415 0
-415 277 0
-415 416 0
-416 275 0
-416 417 0
-417 273 0
-417 418 0
-418 271 0
-418 419 0
-419 269 0
-419 420 0
-42 21 0
-42 43 0
-420 267 0
-420 421 0
-421 265 0
-421 422 0
-422 263 0
-422 423 0
-423 261 0
-423 424 0
-424 259 0
-424 425 0
-425 257 0
-425 426 0
-426 255 0
-426 427 0
-427 -10 254 0
-427 -254 10 0
-428 -429 433 0
-428 429 465 0
-429 33 0
-429 430 0
-43 -10 20 0
-43 -20 10 0
-430 31 0
-430 431 0
-431 29 0
-431 432 0
-432 123 0
-432 61 0
-433 -115 8 0
-433 115 434 0
-434 -435 8 0
-434 435 44 0
-435 127 0
-435 436 0
-436 315 0
-436 437 0
-437 313 0
-437 438 0
-438 311 0
-438 439 0
-439 309 0
-439 440 0
-44 -45 0
-440 307 0
-440 441 0
-441 305 0
-441 442 0
-442 303 0
-442 443 0
-443 301 0
-443 444 0
-444 299 0
-444 445 0
-445 297 0
-445 446 0
-446 295 0
-446 447 0
-447 293 0
-447 448 0
-448 291 0
-448 449 0
-449 289 0
-449 450 0
-45 -10 46 0
-45 -46 10 0
-450 287 0
-450 451 0
-451 285 0
-451 452 0
-452 283 0
-452 453 0
-453 281 0
-453 454 0
-454 279 0
-454 455 0
-455 277 0
-455 456 0
-456 275 0
-456 457 0
-457 273 0
-457 458 0
-458 271 0
-458 459 0
-459 269 0
-459 460 0
-460 267 0
-460 461 0
-461 265 0
-461 462 0
-462 263 0
-462 463 0
-463 250 0
-463 464 0
-464 -10 262 0
-464 -262 10 0
-465 -466 470 0
-465 466 503 0
-466 33 0
-466 467 0
-467 31 0
-467 468 0
-468 29 0
-468 469 0
-469 123 0
-469 69 0
-47 -48 44 0
-47 48 56 0
-470 -115 8 0
-470 115 471 0
-471 -472 8 0
-471 472 44 0
-472 220 0
-472 473 0
-473 218 0
-473 474 0
-474 216 0
-474 475 0
-475 214 0
-475 476 0
-476 212 0
-476 477 0
-477 210 0
-477 478 0
-478 208 0
-478 479 0
-479 206 0
-479 480 0
-48 33 0
-48 49 0
-480 204 0
-480 481 0
-481 202 0
-481 482 0
-482 200 0
-482 483 0
-483 198 0
-483 484 0
-484 196 0
-484 485 0
-485 194 0
-485 486 0
-486 192 0
-486 487 0
-487 190 0
-487 488 0
-488 188 0
-488 489 0
-489 186 0
-489 490 0
-49 31 0
-49 50 0
-490 184 0
-490 491 0
-491 182 0
-491 492 0
-492 180 0
-492 493 0
-493 178 0
-493 494 0
-494 176 0
-494 495 0
-495 174 0
-495 496 0
-496 172 0
-496 497 0
-497 170 0
-497 498 0
-498 168 0
-498 499 0
-499 166 0
-499 500 0
-50 29 0
-50 51 0
-500 164 0
-500 501 0
-501 162 0
-501 502 0
-502 355 0
-502 395 0
-503 -504 508 0
-503 504 541 0
-504 33 0
-504 505 0
-505 31 0
-505 506 0
-506 29 0
-506 507 0
-507 123 0
-507 79 0
-508 -115 8 0
-508 115 509 0
-509 -510 8 0
-509 510 44 0
-51 27 0
-51 52 0
-510 220 0
-510 511 0
-511 218 0
-511 512 0
-512 216 0
-512 513 0
-513 214 0
-513 514 0
-514 212 0
-514 515 0
-515 210 0
-515 516 0
-516 208 0
-516 517 0
-517 206 0
-517 518 0
-518 204 0
-518 519 0
-519 202 0
-519 520 0
-52 25 0
-52 53 0
-520 200 0
-520 521 0
-521 198 0
-521 522 0
-522 196 0
-522 523 0
-523 194 0
-523 524 0
-524 192 0
-524 525 0
-525 190 0
-525 526 0
-526 188 0
-526 527 0
-527 186 0
-527 528 0
-528 184 0
-528 529 0
-529 182 0
-529 530 0
-53 23 0
-53 54 0
-530 180 0
-530 531 0
-531 178 0
-531 532 0
-532 176 0
-532 533 0
-533 174 0
-533 534 0
-534 172 0
-534 535 0
-535 170 0
-535 536 0
-536 168 0
-536 537 0
-537 166 0
-537 538 0
-538 164 0
-538 539 0
-539 394 0
-539 540 0
-54 19 0
-54 55 0
-540 -10 163 0
-540 -163 10 0
-541 -542 546 0
-541 542 578 0
-542 33 0
-542 543 0
-543 31 0
-543 544 0
-544 29 0
-544 545 0
-545 123 0
-545 92 0
-546 -115 8 0
-546 115 547 0
-547 -548 8 0
-547 548 44 0
-548 220 0
-548 549 0
-549 218 0
-549 550 0
-55 -10 22 0
-55 -22 10 0
-550 216 0
-550 551 0
-551 214 0
-551 552 0
-552 212 0
-552 553 0
-553 210 0
-553 554 0
-554 208 0
-554 555 0
-555 206 0
-555 556 0
-556 204 0
-556 557 0
-557 202 0
-557 558 0
-558 200 0
-558 559 0
-559 198 0
-559 560 0
-56 -57 44 0
-56 57 64 0
-560 196 0
-560 561 0
-561 194 0
-561 562 0
-562 192 0
-562 563 0
-563 190 0
-563 564 0
-564 188 0
-564 565 0
-565 186 0
-565 566 0
-566 184 0
-566 567 0
-567 182 0
-567 568 0
-568 180 0
-568 569 0
-569 178 0
-569 570 0
-57 33 0
-57 58 0
-570 176 0
-570 571 0
-571 174 0
-571 572 0
-572 172 0
-572 573 0
-573 170 0
-573 574 0
-574 168 0
-574 575 0
-575 166 0
-575 576 0
-576 156 0
-576 577 0
-577 -10 165 0
-577 -165 10 0
-578 -579 583 0
-578 579 585 0
-579 33 0
-579 580 0
-58 31 0
-58 59 0
-580 31 0
-580 581 0
-581 29 0
-581 582 0
-582 123 0
-582 99 0
-583 -115 8 0
-583 115 584 0
-584 -127 8 0
-584 127 44 0
-585 -586 590 0
-585 586 621 0
-586 33 0
-586 587 0
-587 31 0
-587 588 0
-588 29 0
-588 589 0
-589 106 0
-589 123 0
-59 29 0
-59 60 0
-590 -115 8 0
-590 115 591 0
-591 -592 8 0
-591 592 44 0
-592 220 0
-592 593 0
-593 218 0
-593 594 0
-594 216 0
-594 595 0
-595 214 0
-595 596 0
-596 212 0
-596 597 0
-597 210 0
-597 598 0
-598 208 0
-598 599 0
-599 206 0
-599 600 0
-6 0
-60 27 0
-60 61 0
-600 204 0
-600 601 0
-601 202 0
-601 602 0
-602 200 0
-602 603 0
-603 198 0
-603 604 0
-604 196 0
-604 605 0
-605 194 0
-605 606 0
-606 192 0
-606 607 0
-607 190 0
-607 608 0
-608 188 0
-608 609 0
-609 186 0
-609 610 0
-61 25 0
-61 62 0
-610 184 0
-610 611 0
-611 182 0
-611 612 0
-612 180 0
-612 613 0
-613 178 0
-613 614 0
-614 176 0
-614 615 0
-615 174 0
-615 616 0
-616 172 0
-616 617 0
-617 170 0
-617 618 0
-618 168 0
-618 619 0
-619 166 0
-619 620 0
-62 23 0
-62 63 0
-620 353 0
-620 577 0
-621 -622 583 0
-621 622 626 0
-622 33 0
-622 623 0
-623 31 0
-623 624 0
-624 29 0
-624 625 0
-625 113 0
-625 123 0
-626 -627 583 0
-626 627 631 0
-627 33 0
-627 628 0
-628 31 0
-628 629 0
-629 15 0
-629 630 0
-63 43 0
-63 55 0
-630 -10 30 0
-630 -30 10 0
-631 -632 583 0
-631 632 635 0
-632 33 0
-632 633 0
-633 31 0
-633 634 0
-634 39 0
-634 630 0
-635 -636 583 0
-635 636 639 0
-636 33 0
-636 637 0
-637 31 0
-637 638 0
-638 51 0
-638 630 0
-639 -640 583 0
-639 640 643 0
-64 -65 72 0
-64 65 74 0
-640 33 0
-640 641 0
-641 31 0
-641 642 0
-642 60 0
-642 630 0
-643 -644 583 0
-643 644 647 0
-644 33 0
-644 645 0
-645 31 0
-645 646 0
-646 630 0
-646 68 0
-647 -648 583 0
-647 648 8 0
-648 33 0
-648 649 0
-649 31 0
-649 650 0
-65 33 0
-65 66 0
-650 630 0
-650 78 0
-651 -12 7 0
-651 12 652 0
-652 -36 653 0
-652 36 706 0
-653 -4 654 0
-653 4 656 0
-654 -655 0
-655 -10 46 0
-655 -46 10 0
-656 -12 654 0
-656 12 657 0
-657 -36 658 0
-657 36 660 0
-658 -659 0
-659 -46 46 0
-66 31 0
-66 67 0
-660 -48 658 0
-660 48 661 0
-661 -57 658 0
-661 57 662 0
-662 -65 663 0
-662 65 665 0
-663 -664 0
-664 -46 6 0
-664 -6 46 0
-665 -75 666 0
-665 75 667 0
-666 -82 654 0
-666 82 658 0
-667 -88 658 0
-667 88 668 0
-668 -95 658 0
-668 95 669 0
-669 -102 663 0
-669 102 670 0
-67 29 0
-67 68 0
-670 -109 671 0
-670 109 672 0
-671 -115 654 0
-671 115 658 0
-672 -119 673 0
-672 119 675 0
-673 -115 654 0
-673 115 674 0
-674 -126 654 0
-674 126 658 0
-675 -318 676 0
-675 318 678 0
-676 -115 654 0
-676 115 677 0
-677 -324 654 0
-677 324 658 0
-678 -357 679 0
-678 357 681 0
-679 -115 654 0
-679 115 680 0
-68 27 0
-68 69 0
-680 -363 654 0
-680 363 658 0
-681 -429 682 0
-681 429 684 0
-682 -115 654 0
-682 115 683 0
-683 -435 654 0
-683 435 658 0
-684 -466 685 0
-684 466 687 0
-685 -115 654 0
-685 115 686 0
-686 -472 654 0
-686 472 658 0
-687 -504 688 0
-687 504 690 0
-688 -115 654 0
-688 115 689 0
-689 -510 654 0
-689 510 658 0
-69 25 0
-69 70 0
-690 -542 691 0
-690 542 693 0
-691 -115 654 0
-691 115 692 0
-692 -548 654 0
-692 548 658 0
-693 -579 694 0
-693 579 696 0
-694 -115 654 0
-694 115 695 0
-695 -127 654 0
-695 127 658 0
-696 -586 697 0
-696 586 699 0
-697 -115 654 0
-697 115 698 0
-698 -592 654 0
-698 592 658 0
-699 -622 694 0
-699 622 700 0
-7 -4 8 0
-7 4 11 0
-70 18 0
-70 71 0
-700 -627 694 0
-700 627 701 0
-701 -632 694 0
-701 632 702 0
-702 -636 694 0
-702 636 703 0
-703 -640 694 0
-703 640 704 0
-704 -644 694 0
-704 644 705 0
-705 -648 694 0
-705 648 654 0
-706 -48 653 0
-706 48 707 0
-707 -57 653 0
-707 57 708 0
-708 -65 709 0
-708 65 762 0
-709 -4 710 0
-709 4 712 0
-71 -10 24 0
-71 -24 10 0
-710 -711 0
-711 -10 6 0
-711 -6 10 0
-712 -12 710 0
-712 12 713 0
-713 -36 714 0
-713 36 716 0
-714 -715 0
-715 -46 6 0
-715 -6 46 0
-716 -48 714 0
-716 48 717 0
-717 -57 714 0
-717 57 718 0
-718 -65 719 0
-718 65 721 0
-719 -720 0
-72 -73 0
-720 -6 6 0
-721 -75 722 0
-721 75 723 0
-722 -82 710 0
-722 82 714 0
-723 -88 714 0
-723 88 724 0
-724 -95 714 0
-724 95 725 0
-725 -102 719 0
-725 102 726 0
-726 -109 727 0
-726 109 728 0
-727 -115 710 0
-727 115 714 0
-728 -119 729 0
-728 119 731 0
-729 -115 710 0
-729 115 730 0
-73 -10 6 0
-73 -6 10 0
-730 -126 710 0
-730 126 714 0
-731 -318 732 0
-731 318 734 0
-732 -115 710 0
-732 115 733 0
-733 -324 710 0
-733 324 714 0
-734 -357 735 0
-734 357 737 0
-735 -115 710 0
-735 115 736 0
-736 -363 710 0
-736 363 714 0
-737 -429 738 0
-737 429 740 0
-738 -115 710 0
-738 115 739 0
-739 -435 710 0
-739 435 714 0
-74 -75 81 0
-74 75 87 0
-740 -466 741 0
-740 466 743 0
-741 -115 710 0
-741 115 742 0
-742 -472 710 0
-742 472 714 0
-743 -504 744 0
-743 504 746 0
-744 -115 710 0
-744 115 745 0
-745 -510 710 0
-745 510 714 0
-746 -542 747 0
-746 542 749 0
-747 -115 710 0
-747 115 748 0
-748 -548 710 0
-748 548 714 0
-749 -579 750 0
-749 579 752 0
-75 33 0
-75 76 0
-750 -115 710 0
-750 115 751 0
-751 -127 710 0
-751 127 714 0
-752 -586 753 0
-752 586 755 0
-753 -115 710 0
-753 115 754 0
-754 -592 710 0
-754 592 714 0
-755 -622 750 0
-755 622 756 0
-756 -627 750 0
-756 627 757 0
-757 -632 750 0
-757 632 758 0
-758 -636 750 0
-758 636 759 0
-759 -640 750 0
-759 640 760 0
-76 31 0
-76 77 0
-760 -644 750 0
-760 644 761 0
-761 -648 750 0
-761 648 710 0
-762 -75 763 0
-762 75 764 0
-763 -82 7 0
-763 82 653 0
-764 -88 653 0
-764 88 765 0
-765 -95 653 0
-765 95 766 0
-766 -102 709 0
-766 102 767 0
-767 -109 768 0
-767 109 769 0
-768 -115 7 0
-768 115 653 0
-769 -119 770 0
-769 119 772 0
-77 29 0
-77 78 0
-770 -115 7 0
-770 115 771 0
-771 -126 7 0
-771 126 653 0
-772 -318 773 0
-772 318 775 0
-773 -115 7 0
-773 115 774 0
-774 -324 7 0
-774 324 653 0
-775 -357 776 0
-775 357 778 0
-776 -115 7 0
-776 115 777 0
-777 -363 7 0
-777 363 653 0
-778 -429 779 0
-778 429 781 0
-779 -115 7 0
-779 115 780 0
-78 27 0
-78 79 0
-780 -435 7 0
-780 435 653 0
-781 -466 782 0
-781 466 784 0
-782 -115 7 0
-782 115 783 0
-783 -472 7 0
-783 472 653 0
-784 -504 785 0
-784 504 787 0
-785 -115 7 0
-785 115 786 0
-786 -510 7 0
-786 510 653 0
-787 -542 788 0
-787 542 790 0
-788 -115 7 0
-788 115 789 0
-789 -548 7 0
-789 548 653 0
-79 25 0
-79 80 0
-790 -579 791 0
-790 579 793 0
-791 -115 7 0
-791 115 792 0
-792 -127 7 0
-792 127 653 0
-793 -586 794 0
-793 586 796 0
-794 -115 7 0
-794 115 795 0
-795 -592 7 0
-795 592 653 0
-796 -622 791 0
-796 622 797 0
-797 -627 791 0
-797 627 798 0
-798 -632 791 0
-798 632 799 0
-799 -636 791 0
-799 636 800 0
-8 -9 0
-80 42 0
-80 71 0
-800 -640 791 0
-800 640 801 0
-801 -644 791 0
-801 644 802 0
-802 -648 791 0
-802 648 7 0
-803 -804 0
-804 -805 805 0
-806 -807 856 0
-806 807 858 0
-807 808 0
-807 855 0
-808 -4 10 0
-808 4 809 0
-809 -12 10 0
-809 12 810 0
-81 -82 8 0
-81 82 44 0
-810 -36 655 0
-810 36 811 0
-811 -48 655 0
-811 48 812 0
-812 -57 655 0
-812 57 813 0
-813 -65 6 0
-813 65 814 0
-814 -75 815 0
-814 75 816 0
-815 -82 10 0
-815 82 655 0
-816 -88 655 0
-816 88 817 0
-817 -95 655 0
-817 95 818 0
-818 -102 6 0
-818 102 819 0
-819 -109 820 0
-819 109 821 0
-82 83 0
-82 85 0
-820 -115 10 0
-820 115 655 0
-821 -119 822 0
-821 119 824 0
-822 -115 10 0
-822 115 823 0
-823 -126 10 0
-823 126 655 0
-824 -318 825 0
-824 318 827 0
-825 -115 10 0
-825 115 826 0
-826 -324 10 0
-826 324 655 0
-827 -357 828 0
-827 357 830 0
-828 -115 10 0
-828 115 829 0
-829 -363 10 0
-829 363 655 0
-83 -10 84 0
-83 -84 10 0
-830 -429 831 0
-830 429 833 0
-831 -115 10 0
-831 115 832 0
-832 -435 10 0
-832 435 655 0
-833 -466 834 0
-833 466 836 0
-834 -115 10 0
-834 115 835 0
-835 -472 10 0
-835 472 655 0
-836 -504 837 0
-836 504 839 0
-837 -115 10 0
-837 115 838 0
-838 -510 10 0
-838 510 655 0
-839 -542 840 0
-839 542 842 0
-840 -115 10 0
-840 115 841 0
-841 -548 10 0
-841 548 655 0
-842 -579 843 0
-842 579 845 0
-843 -115 10 0
-843 115 844 0
-844 -127 10 0
-844 127 655 0
-845 -586 846 0
-845 586 848 0
-846 -115 10 0
-846 115 847 0
-847 -592 10 0
-847 592 655 0
-848 -622 843 0
-848 622 849 0
-849 -627 843 0
-849 627 850 0
-85 -10 86 0
-85 -86 10 0
-850 -632 843 0
-850 632 851 0
-851 -636 843 0
-851 636 852 0
-852 -640 843 0
-852 640 853 0
-853 -644 843 0
-853 644 854 0
-854 -648 843 0
-854 648 10 0
-855 -10 805 0
-855 -805 10 0
-856 -10 857 0
-856 -857 10 0
-858 -6 857 0
-858 -857 6 0
-859 -860 806 0
-859 860 861 0
-860 653 803 0
-861 -862 866 0
-861 862 868 0
-862 658 863 0
-863 -864 0
-864 -805 865 0
-864 -865 805 0
-866 -867 856 0
-866 867 858 0
-867 655 0
-867 855 0
-868 -857 869 0
-868 -869 857 0
-87 -88 44 0
-87 88 94 0
-88 33 0
-88 89 0
-89 31 0
-89 90 0
-9 -10 10 0
-90 29 0
-90 91 0
-91 27 0
-91 92 0
-92 25 0
-92 93 0
-93 54 0
-93 71 0
-94 -95 44 0
-94 95 101 0
-95 33 0
-95 96 0
-96 31 0
-96 97 0
-97 29 0
-97 98 0
-98 27 0
-98 99 0
-99 100 0
-99 25 0
1 -2 -806 0
1 -806 -859 0
1 0
1 2 -859 0
10 0
100 -63 -71 0
101 -102 -72 0
101 -72 -108 0
101 102 -108 0
102 -103 -33 0
103 -104 -31 0
104 -105 -29 0
105 -106 -27 0
106 -17 -107 0
107 -26 -10 0
107 26 10 0
108 -109 -114 0
108 -114 -118 0
108 109 -118 0
109 -110 -33 0
11 -12 -8 0
11 -8 -35 0
11 12 -35 0
110 -111 -31 0
111 -112 -29 0
112 -113 -27 0
113 -41 -107 0
114 -115 -8 0
114 -8 -44 0
114 115 -44 0
115 -116 0
115 -83 0
116 -117 -10 0
116 117 10 0
118 -119 -124 0
118 -124 -317 0
118 119 -317 0
119 -120 -33 0
12 -13 -33 0
120 -121 -31 0
121 -122 -29 0
122 -16 -123 0
123 -28 -10 0
123 28 10 0
124 -115 -8 0
124 -8 -125 0
124 115 -125 0
125 -126 -8 0
125 -8 -44 0
125 126 -44 0
126 -127 -222 0
127 -128 -220 0
128 -129 -218 0
129 -130 -216 0
13 -14 -31 0
130 -131 -214 0
131 -132 -212 0
132 -133 -210 0
133 -134 -208 0
134 -135 -206 0
135 -136 -204 0
136 -137 -202 0
137 -138 -200 0
138 -139 -198 0
139 -140 -196 0
14 -15 -29 0
140 -141 -194 0
141 -142 -192 0
142 -143 -190 0
143 -144 -188 0
144 -145 -186 0
145 -146 -184 0
146 -147 -182 0
147 -148 -180 0
148 -149 -178 0
149 -150 -176 0
15 -16 -27 0
150 -151 -174 0
151 -152 -172 0
152 -153 -170 0
153 -154 -168 0
154 -155 -166 0
155 -156 -164 0
156 -157 -162 0
157 -158 -160 0
158 -159 -6 0
158 159 6 0
16 -17 -25 0
160 -161 -6 0
160 161 6 0
162 -163 -6 0
162 163 6 0
164 -165 -6 0
164 165 6 0
166 -167 -6 0
166 167 6 0
168 -169 -6 0
168 169 6 0
17 -18 -23 0
170 -171 -6 0
170 171 6 0
172 -173 -6 0
172 173 6 0
174 -175 -6 0
174 175 6 0
176 -177 -6 0
176 177 6 0
178 -179 -6 0
178 179 6 0
18 -19 -21 0
180 -181 -6 0
180 181 6 0
182 -183 -6 0
182 183 6 0
184 -185 -6 0
184 185 6 0
186 -187 -6 0
186 187 6 0
188 -189 -6 0
188 189 6 0
19 -20 -6 0
19 20 6 0
190 -191 -6 0
190 191 6 0
192 -193 -6 0
192 193 6 0
194 -195 -6 0
194 195 6 0
196 -197 -6 0
196 197 6 0
198 -199 -6 0
198 199 6 0
2 -3 0
2 -803 0
200 -201 -6 0
200 201 6 0
202 -203 -6 0
202 203 6 0
204 -205 -6 0
204 205 6 0
206 -207 -6 0
206 207 6 0
208 -209 -6 0
208 209 6 0
21 -22 -6 0
21 22 6 0
210 -211 -6 0
210 211 6 0
212 -213 -6 0
212 213 6 0
214 -215 -6 0
214 215 6 0
216 -217 -6 0
216 217 6 0
218 -219 -6 0
218 219 6 0
220 -221 -6 0
220 221 6 0
222 -223 -315 0
223 -224 -313 0
224 -225 -311 0
225 -226 -309 0
226 -227 -307 0
227 -228 -305 0
228 -229 -303 0
229 -230 -301 0
23 -24 -6 0
23 24 6 0
230 -231 -299 0
231 -232 -297 0
232 -233 -295 0
233 -234 -293 0
234 -235 -291 0
235 -236 -289 0
236 -237 -287 0
237 -238 -285 0
238 -239 -283 0
239 -240 -281 0
240 -241 -279 0
241 -242 -277 0
242 -243 -275 0
243 -244 -273 0
244 -245 -271 0
245 -246 -269 0
246 -247 -267 0
247 -248 -265 0
248 -249 -263 0
249 -250 -261 0
25 -26 -6 0
25 26 6 0
250 -251 -259 0
251 -252 -257 0
252 -253 -255 0
253 -254 -6 0
253 254 6 0
255 -256 -6 0
255 256 6 0
257 -258 -6 0
257 258 6 0
259 -260 -6 0
259 260 6 0
261 -262 -6 0
261 262 6 0
263 -264 -6 0
263 264 6 0
265 -266 -6 0
265 266 6 0
267 -268 -6 0
267 268 6 0
269 -270 -6 0
269 270 6 0
27 -28 -6 0
27 28 6 0
271 -272 -6 0
271 272 6 0
273 -274 -6 0
273 274 6 0
275 -276 -6 0
275 276 6 0
277 -278 -6 0
277 278 6 0
279 -280 -6 0
279 280 6 0
281 -282 -6 0
281 282 6 0
283 -284 -6 0
283 284 6 0
285 -286 -6 0
285 286 6 0
287 -288 -6 0
287 288 6 0
289 -290 -6 0
289 290 6 0
29 -30 -6 0
29 30 6 0
291 -292 -6 0
291 292 6 0
293 -294 -6 0
293 294 6 0
295 -296 -6 0
295 296 6 0
297 -298 -6 0
297 298 6 0
299 -300 -6 0
299 300 6 0
3 -4 -7 0
3 -7 -651 0
3 4 -651 0
301 -302 -6 0
301 302 6 0
303 -304 -6 0
303 304 6 0
305 -306 -6 0
305 306 6 0
307 -308 -6 0
307 308 6 0
309 -310 -6 0
309 310 6 0
31 -32 -6 0
31 32 6 0
311 -312 -6 0
311 312 6 0
313 -314 -6 0
313 314 6 0
315 -316 -6 0
315 316 6 0
317 -318 -322 0
317 -322 -356 0
317 318 -356 0
318 -319 -33 0
319 -320 -31 0
320 -321 -29 0
321 -40 -123 0
322 -115 -8 0
322 -8 -323 0
322 115 -323 0
323 -324 -8 0
323 -8 -44 0
323 324 -44 0
324 -325 -220 0
325 -326 -218 0
326 -327 -216 0
327 -328 -214 0
328 -329 -212 0
329 -330 -210 0
33 -34 -6 0
33 34 6 0
330 -331 -208 0
331 -332 -206 0
332 -333 -204 0
333 -334 -202 0
334 -335 -200 0
335 -336 -198 0
336 -337 -196 0
337 -338 -194 0
338 -339 -192 0
339 -340 -190 0
340 -341 -188 0
341 -342 -186 0
342 -343 -184 0
343 -344 -182 0
344 -345 -180 0
345 -346 -178 0
346 -347 -176 0
347 -348 -174 0
348 -349 -172 0
349 -350 -170 0
35 -36 -44 0
35 -44 -47 0
35 36 -47 0
350 -351 -168 0
351 -352 -166 0
352 -353 -164 0
353 -354 -162 0
354 -355 -160 0
355 -159 -10 0
355 159 10 0
356 -357 -361 0
356 -361 -428 0
356 357 -428 0
357 -358 -33 0
358 -359 -31 0
359 -360 -29 0
36 -37 -33 0
360 -52 -123 0
361 -115 -8 0
361 -8 -362 0
361 115 -362 0
362 -363 -8 0
362 -8 -44 0
362 363 -44 0
363 -364 -396 0
364 -365 -220 0
365 -366 -218 0
366 -367 -216 0
367 -368 -214 0
368 -369 -212 0
369 -370 -210 0
37 -38 -31 0
370 -371 -208 0
371 -372 -206 0
372 -373 -204 0
373 -374 -202 0
374 -375 -200 0
375 -376 -198 0
376 -377 -196 0
377 -378 -194 0
378 -379 -192 0
379 -380 -190 0
38 -39 -29 0
380 -381 -188 0
381 -382 -186 0
382 -383 -184 0
383 -384 -182 0
384 -385 -180 0
385 -386 -178 0
386 -387 -176 0
387 -388 -174 0
388 -389 -172 0
389 -390 -170 0
39 -40 -27 0
390 -391 -168 0
391 -392 -166 0
392 -393 -164 0
393 -394 -162 0
394 -158 -395 0
395 -161 -10 0
395 161 10 0
396 -397 -315 0
397 -398 -313 0
398 -399 -311 0
399 -400 -309 0
4 -5 -6 0
4 5 6 0
40 -41 -25 0
400 -401 -307 0
401 -402 -305 0
402 -403 -303 0
403 -404 -301 0
404 -405 -299 0
405 -406 -297 0
406 -407 -295 0
407 -408 -293 0
408 -409 -291 0
409 -410 -289 0
41 -42 -23 0
410 -411 -287 0
411 -412 -285 0
412 -413 -283 0
413 -414 -281 0
414 -415 -279 0
415 -416 -277 0
416 -417 -275 0
417 -418 -273 0
418 -419 -271 0
419 -420 -269 0
42 -43 -21 0
420 -421 -267 0
421 -422 -265 0
422 -423 -263 0
423 -424 -261 0
424 -425 -259 0
425 -426 -257 0
426 -427 -255 0
427 -254 -10 0
427 254 10 0
428 -429 -433 0
428 -433 -465 0
428 429 -465 0
429 -430 -33 0
43 -20 -10 0
43 20 10 0
430 -431 -31 0
431 -432 -29 0
432 -61 -123 0
433 -115 -8 0
433 -8 -434 0
433 115 -434 0
434 -435 -8 0
434 -8 -44 0
434 435 -44 0
435 -127 -436 0
436 -437 -315 0
437 -438 -313 0
438 -439 -311 0
439 -440 -309 0
44 45 0
440 -441 -307 0
441 -442 -305 0
442 -443 -303 0
443 -444 -301 0
444 -445 -299 0
445 -446 -297 0
446 -447 -295 0
447 -448 -293 0
448 -449 -291 0
449 -450 -289 0
45 -10 -46 0
45 10 46 0
450 -451 -287 0
451 -452 -285 0
452 -453 -283 0
453 -454 -281 0
454 -455 -279 0
455 -456 -277 0
456 -457 -275 0
457 -458 -273 0
458 -459 -271 0
459 -460 -269 0
460 -461 -267 0
461 -462 -265 0
462 -463 -263 0
463 -250 -464 0
464 -262 -10 0
464 262 10 0
465 -466 -470 0
465 -470 -503 0
465 466 -503 0
466 -467 -33 0
467 -468 -31 0
468 -469 -29 0
469 -69 -123 0
47 -44 -56 0
47 -48 -44 0
47 48 -56 0
470 -115 -8 0
470 -8 -471 0
470 115 -471 0
471 -472 -8 0
471 -8 -44 0
471 472 -44 0
472 -473 -220 0
473 -474 -218 0
474 -475 -216 0
475 -476 -214 0
476 -477 -212 0
477 -478 -210 0
478 -479 -208 0
479 -480 -206 0
48 -49 -33 0
480 -481 -204 0
481 -482 -202 0
482 -483 -200 0
483 -484 -198 0
484 -485 -196 0
485 -486 -194 0
486 -487 -192 0
487 -488 -190 0
488 -489 -188 0
489 -490 -186 0
49 -50 -31 0
490 -491 -184 0
491 -492 -182 0
492 -493 -180 0
493 -494 -178 0
494 -495 -176 0
495 -496 -174 0
496 -497 -172 0
497 -498 -170 0
498 -499 -168 0
499 -500 -166 0
50 -51 -29 0
500 -501 -164 0
501 -502 -162 0
502 -355 -395 0
503 -504 -508 0
503 -508 -541 0
503 504 -541 0
504 -505 -33 0
505 -506 -31 0
506 -507 -29 0
507 -79 -123 0
508 -115 -8 0
508 -8 -509 0
508 115 -509 0
509 -510 -8 0
509 -8 -44 0
509 510 -44 0
51 -52 -27 0
510 -511 -220 0
511 -512 -218 0
512 -513 -216 0
513 -514 -214 0
514 -515 -212 0
515 -516 -210 0
516 -517 -208 0
517 -518 -206 0
518 -519 -204 0
519 -520 -202 0
52 -53 -25 0
520 -521 -200 0
521 -522 -198 0
522 -523 -196 0
523 -524 -194 0
524 -525 -192 0
525 -526 -190 0
526 -527 -188 0
527 -528 -186 0
528 -529 -184 0
529 -530 -182 0
53 -54 -23 0
530 -531 -180 0
531 -532 -178 0
532 -533 -176 0
533 -534 -174 0
534 -535 -172 0
535 -536 -170 0
536 -537 -168 0
537 -538 -166 0
538 -539 -164 0
539 -394 -540 0
54 -19 -55 0
540 -163 -10 0
540 163 10 0
541 -542 -546 0
541 -546 -578 0
541 542 -578 0
542 -543 -33 0
543 -544 -31 0
544 -545 -29 0
545 -92 -123 0
546 -115 -8 0
546 -8 -547 0
546 115 -547 0
547 -548 -8 0
547 -8 -44 0
547 548 -44 0
548 -549 -220 0
549 -550 -218 0
55 -22 -10 0
55 22 10 0
550 -551 -216 0
551 -552 -214 0
552 -553 -212 0
553 -554 -210 0
554 -555 -208 0
555 -556 -206 0
556 -557 -204 0
557 -558 -202 0
558 -559 -200 0
559 -560 -198 0
56 -44 -64 0
56 -57 -44 0
56 57 -64 0
560 -561 -196 0
561 -562 -194 0
562 -563 -192 0
563 -564 -190 0
564 -565 -188 0
565 -566 -186 0
566 -567 -184 0
567 -568 -182 0
568 -569 -180 0
569 -570 -178 0
57 -58 -33 0
570 -571 -176 0
571 -572 -174 0
572 -573 -172 0
573 -574 -170 0
574 -575 -168 0
575 -576 -166 0
576 -156 -577 0
577 -165 -10 0
577 165 10 0
578 -579 -583 0
578 -583 -585 0
578 579 -585 0
579 -580 -33 0
58 -59 -31 0
580 -581 -31 0
581 -582 -29 0
582 -99 -123 0
583 -115 -8 0
583 -8 -584 0
583 115 -584 0
584 -127 -8 0
584 -8 -44 0
584 127 -44 0
585 -586 -590 0
585 -590 -621 0
585 586 -621 0
586 -587 -33 0
587 -588 -31 0
588 -589 -29 0
589 -106 -123 0
59 -60 -29 0
590 -115 -8 0
590 -8 -591 0
590 115 -591 0
591 -592 -8 0
591 -8 -44 0
591 592 -44 0
592 -593 -220 0
593 -594 -218 0
594 -595 -216 0
595 -596 -214 0
596 -597 -212 0
597 -598 -210 0
598 -599 -208 0
599 -600 -206 0
60 -61 -27 0
600 -601 -204 0
601 -602 -202 0
602 -603 -200 0
603 -604 -198 0
604 -605 -196 0
605 -606 -194 0
606 -607 -192 0
607 -608 -190 0
608 -609 -188 0
609 -610 -186 0
61 -62 -25 0
610 -611 -184 0
611 -612 -182 0
612 -613 -180 0
613 -614 -178 0
614 -615 -176 0
615 -616 -174 0
616 -617 -172 0
617 -618 -170 0
618 -619 -168 0
619 -620 -166 0
62 -63 -23 0
620 -353 -577 0
621 -583 -626 0
621 -622 -583 0
621 622 -626 0
622 -623 -33 0
623 -624 -31 0
624 -625 -29 0
625 -113 -123 0
626 -583 -631 0
626 -627 -583 0
626 627 -631 0
627 -628 -33 0
628 -629 -31 0
629 -15 -630 0
63 -43 -55 0
630 -30 -10 0
630 30 10 0
631 -583 -635 0
631 -632 -583 0
631 632 -635 0
632 -633 -33 0
633 -634 -31 0
634 -39 -630 0
635 -583 -639 0
635 -636 -583 0
635 636 -639 0
636 -637 -33 0
637 -638 -31 0
638 -51 -630 0
639 -583 -643 0
639 -640 -583 0
639 640 -643 0
64 -65 -72 0
64 -72 -74 0
64 65 -74 0
640 -641 -33 0
641 -642 -31 0
642 -60 -630 0
643 -583 -647 0
643 -644 -583 0
643 644 -647 0
644 -645 -33 0
645 -646 -31 0
646 -68 -630 0
647 -583 -8 0
647 -648 -583 0
647 648 -8 0
648 -649 -33 0
649 -650 -31 0
65 -66 -33 0
650 -78 -630 0
651 -12 -7 0
651 -7 -652 0
651 12 -652 0
652 -36 -653 0
652 -653 -706 0
652 36 -706 0
653 -4 -654 0
653 -654 -656 0
653 4 -656 0
654 655 0
655 -46 -10 0
655 46 10 0
656 -12 -654 0
656 -654 -657 0
656 12 -657 0
657 -36 -658 0
657 -658 -660 0
657 36 -660 0
658 659 0
659 -46 -46 0
659 46 46 0
66 -67 -31 0
660 -48 -658 0
660 -658 -661 0
660 48 -661 0
661 -57 -658 0
661 -658 -662 0
661 57 -662 0
662 -65 -663 0
662 -663 -665 0
662 65 -665 0
663 664 0
664 -46 -6 0
664 46 6 0
665 -666 -667 0
665 -75 -666 0
665 75 -667 0
666 -654 -658 0
666 -82 -654 0
666 82 -658 0
667 -658 -668 0
667 -88 -658 0
667 88 -668 0
668 -658 -669 0
668 -95 -658 0
668 95 -669 0
669 -102 -663 0
669 -663 -670 0
669 102 -670 0
67 -68 -29 0
670 -109 -671 0
670 -671 -672 0
670 109 -672 0
671 -115 -654 0
671 -654 -658 0
671 115 -658 0
672 -119 -673 0
672 -673 -675 0
672 119 -675 0
673 -115 -654 0
673 -654 -674 0
673 115 -674 0
674 -126 -654 0
674 -654 -658 0
674 126 -658 0
675 -318 -676 0
675 -676 -678 0
675 318 -678 0
676 -115 -654 0
676 -654 -677 0
676 115 -677 0
677 -324 -654 0
677 -654 -658 0
677 324 -658 0
678 -357 -679 0
678 -679 -681 0
678 357 -681 0
679 -115 -654 0
679 -654 -680 0
679 115 -680 0
68 -69 -27 0
680 -363 -654 0
680 -654 -658 0
680 363 -658 0
681 -429 -682 0
681 -682 -684 0
681 429 -684 0
682 -115 -654 0
682 -654 -683 0
682 115 -683 0
683 -435 -654 0
683 -654 -658 0
683 435 -658 0
684 -466 -685 0
684 -685 -687 0
684 466 -687 0
685 -115 -654 0
685 -654 -686 0
685 115 -686 0
686 -472 -654 0
686 -654 -658 0
686 472 -658 0
687 -504 -688 0
687 -688 -690 0
687 504 -690 0
688 -115 -654 0
688 -654 -689 0
688 115 -689 0
689 -510 -654 0
689 -654 -658 0
689 510 -658 0
69 -70 -25 0
690 -542 -691 0
690 -691 -693 0
690 542 -693 0
691 -115 -654 0
691 -654 -692 0
691 115 -692 0
692 -548 -654 0
692 -654 -658 0
692 548 -658 0
693 -579 -694 0
693 -694 -696 0
693 579 -696 0
694 -115 -654 0
694 -654 -695 0
694 115 -695 0
695 -127 -654 0
695 -654 -658 0
695 127 -658 0
696 -586 -697 0
696 -697 -699 0
696 586 -699 0
697 -115 -654 0
697 -654 -698 0
697 115 -698 0
698 -592 -654 0
698 -654 -658 0
698 592 -658 0
699 -622 -694 0
699 -694 -700 0
699 622 -700 0
7 -4 -8 0
7 -8 -11 0
7 4 -11 0
70 -18 -71 0
700 -627 -694 0
700 -694 -701 0
700 627 -701 0
701 -632 -694 0
701 -694 -702 0
701 632 -702 0
702 -636 -694 0
702 -694 -703 0
702 636 -703 0
703 -640 -694 0
703 -694 -704 0
703 640 -704 0
704 -644 -694 0
704 -694 -705 0
704 644 -705 0
705 -648 -694 0
705 -694 -654 0
705 648 -654 0
706 -48 -653 0
706 -653 -707 0
706 48 -707 0
707 -57 -653 0
707 -653 -708 0
707 57 -708 0
708 -65 -709 0
708 -709 -762 0
708 65 -762 0
709 -4 -710 0
709 -710 -712 0
709 4 -712 0
71 -24 -10 0
71 24 10 0
710 711 0
711 -6 -10 0
711 6 10 0
712 -12 -710 0
712 -710 -713 0
712 12 -713 0
713 -36 -714 0
713 -714 -716 0
713 36 -716 0
714 715 0
715 -6 -46 0
715 6 46 0
716 -48 -714 0
716 -714 -717 0
716 48 -717 0
717 -57 -714 0
717 -714 -718 0
717 57 -718 0
718 -65 -719 0
718 -719 -721 0
718 65 -721 0
719 720 0
72 73 0
720 -6 -6 0
720 6 6 0
721 -722 -723 0
721 -75 -722 0
721 75 -723 0
722 -710 -714 0
722 -82 -710 0
722 82 -714 0
723 -714 -724 0
723 -88 -714 0
723 88 -724 0
724 -714 -725 0
724 -95 -714 0
724 95 -725 0
725 -102 -719 0
725 -719 -726 0
725 102 -726 0
726 -109 -727 0
726 -727 -728 0
726 109 -728 0
727 -115 -710 0
727 -710 -714 0
727 115 -714 0
728 -119 -729 0
728 -729 -731 0
728 119 -731 0
729 -115 -710 0
729 -710 -730 0
729 115 -730 0
73 -10 -6 0
73 10 6 0
730 -126 -710 0
730 -710 -714 0
730 126 -714 0
731 -318 -732 0
731 -732 -734 0
731 318 -734 0
732 -115 -710 0
732 -710 -733 0
732 115 -733 0
733 -324 -710 0
733 -710 -714 0
733 324 -714 0
734 -357 -735 0
734 -735 -737 0
734 357 -737 0
735 -115 -710 0
735 -710 -736 0
735 115 -736 0
736 -363 -710 0
736 -710 -714 0
736 363 -714 0
737 -429 -738 0
737 -738 -740 0
737 429 -740 0
738 -115 -710 0
738 -710 -739 0
738 115 -739 0
739 -435 -710 0
739 -710 -714 0
739 435 -714 0
74 -75 -81 0
74 -81 -87 0
74 75 -87 0
740 -466 -741 0
740 -741 -743 0
740 466 -743 0
741 -115 -710 0
741 -710 -742 0
741 115 -742 0
742 -472 -710 0
742 -710 -714 0
742 472 -714 0
743 -504 -744 0
743 -744 -746 0
743 504 -746 0
744 -115 -710 0
744 -710 -745 0
744 115 -745 0
745 -510 -710 0
745 -710 -714 0
745 510 -714 0
746 -542 -747 0
746 -747 -749 0
746 542 -749 0
747 -115 -710 0
747 -710 -748 0
747 115 -748 0
748 -548 -710 0
748 -710 -714 0
748 548 -714 0
749 -579 -750 0
749 -750 -752 0
749 579 -752 0
75 -76 -33 0
750 -115 -710 0
750 -710 -751 0
750 115 -751 0
751 -127 -710 0
751 -710 -714 0
751 127 -714 0
752 -586 -753 0
752 -753 -755 0
752 586 -755 0
753 -115 -710 0
753 -710 -754 0
753 115 -754 0
754 -592 -710 0
754 -710 -714 0
754 592 -714 0
755 -622 -750 0
755 -750 -756 0
755 622 -756 0
756 -627 -750 0
756 -750 -757 0
756 627 -757 0
757 -632 -750 0
757 -750 -758 0
757 632 -758 0
758 -636 -750 0
758 -750 -759 0
758 636 -759 0
759 -640 -750 0
759 -750 -760 0
759 640 -760 0
76 -77 -31 0
760 -644 -750 0
760 -750 -761 0
760 644 -761 0
761 -648 -750 0
761 -750 -710 0
761 648 -710 0
762 -75 -763 0
762 -763 -764 0
762 75 -764 0
763 -7 -653 0
763 -82 -7 0
763 82 -653 0
764 -653 -765 0
764 -88 -653 0
764 88 -765 0
765 -653 -766 0
765 -95 -653 0
765 95 -766 0
766 -102 -709 0
766 -709 -767 0
766 102 -767 0
767 -109 -768 0
767 -768 -769 0
767 109 -769 0
768 -115 -7 0
768 -7 -653 0
768 115 -653 0
769 -119 -770 0
769 -770 -772 0
769 119 -772 0
77 -78 -29 0
770 -115 -7 0
770 -7 -771 0
770 115 -771 0
771 -126 -7 0
771 -7 -653 0
771 126 -653 0
772 -318 -773 0
772 -773 -775 0
772 318 -775 0
773 -115 -7 0
773 -7 -774 0
773 115 -774 0
774 -324 -7 0
774 -7 -653 0
774 324 -653 0
775 -357 -776 0
775 -776 -778 0
775 357 -778 0
776 -115 -7 0
776 -7 -777 0
776 115 -777 0
777 -363 -7 0
777 -7 -653 0
777 363 -653 0
778 -429 -779 0
778 -779 -781 0
778 429 -781 0
779 -115 -7 0
779 -7 -780 0
779 115 -780 0
78 -79 -27 0
780 -435 -7 0
780 -7 -653 0
780 435 -653 0
781 -466 -782 0
781 -782 -784 0
781 466 -784 0
782 -115 -7 0
782 -7 -783 0
782 115 -783 0
783 -472 -7 0
783 -7 -653 0
783 472 -653 0
784 -504 -785 0
784 -785 -787 0
784 504 -787 0
785 -115 -7 0
785 -7 -786 0
785 115 -786 0
786 -510 -7 0
786 -7 -653 0
786 510 -653 0
787 -542 -788 0
787 -788 -790 0
787 542 -790 0
788 -115 -7 0
788 -7 -789 0
788 115 -789 0
789 -548 -7 0
789 -7 -653 0
789 548 -653 0
79 -80 -25 0
790 -579 -791 0
790 -791 -793 0
790 579 -793 0
791 -115 -7 0
791 -7 -792 0
791 115 -792 0
792 -127 -7 0
792 -7 -653 0
792 127 -653 0
793 -586 -794 0
793 -794 -796 0
793 586 -796 0
794 -115 -7 0
794 -7 -795 0
794 115 -795 0
795 -592 -7 0
795 -7 -653 0
795 592 -653 0
796 -622 -791 0
796 -791 -797 0
796 622 -797 0
797 -627 -791 0
797 -791 -798 0
797 627 -798 0
798 -632 -791 0
798 -791 -799 0
798 632 -799 0
799 -636 -791 0
799 -791 -800 0
799 636 -800 0
8 9 0
80 -42 -71 0
800 -640 -791 0
800 -791 -801 0
800 640 -801 0
801 -644 -791 0
801 -791 -802 0
801 644 -802 0
802 -648 -791 0
802 -791 -7 0
802 648 -7 0
803 804 0
804 -805 -805 0
804 805 805 0
806 -807 -856 0
806 -856 -858 0
806 807 -858 0
807 -808 -855 0
808 -10 -809 0
808 -4 -10 0
808 4 -809 0
809 -10 -810 0
809 -12 -10 0
809 12 -810 0
81 -8 -44 0
81 -82 -8 0
81 82 -44 0
810 -36 -655 0
810 -655 -811 0
810 36 -811 0
811 -48 -655 0
811 -655 -812 0
811 48 -812 0
812 -57 -655 0
812 -655 -813 0
812 57 -813 0
813 -6 -814 0
813 -65 -6 0
813 65 -814 0
814 -75 -815 0
814 -815 -816 0
814 75 -816 0
815 -10 -655 0
815 -82 -10 0
815 82 -655 0
816 -655 -817 0
816 -88 -655 0
816 88 -817 0
817 -655 -818 0
817 -95 -655 0
817 95 -818 0
818 -102 -6 0
818 -6 -819 0
818 102 -819 0
819 -109 -820 0
819 -820 -821 0
819 109 -821 0
82 -83 -85 0
820 -10 -655 0
820 -115 -10 0
820 115 -655 0
821 -119 -822 0
821 -822 -824 0
821 119 -824 0
822 -10 -823 0
822 -115 -10 0
822 115 -823 0
823 -10 -655 0
823 -126 -10 0
823 126 -655 0
824 -318 -825 0
824 -825 -827 0
824 318 -827 0
825 -10 -826 0
825 -115 -10 0
825 115 -826 0
826 -10 -655 0
826 -324 -10 0
826 324 -655 0
827 -357 -828 0
827 -828 -830 0
827 357 -830 0
828 -10 -829 0
828 -115 -10 0
828 115 -829 0
829 -10 -655 0
829 -363 -10 0
829 363 -655 0
83 -84 -10 0
83 84 10 0
830 -429 -831 0
830 -831 -833 0
830 429 -833 0
831 -10 -832 0
831 -115 -10 0
831 115 -832 0
832 -10 -655 0
832 -435 -10 0
832 435 -655 0
833 -466 -834 0
833 -834 -836 0
833 466 -836 0
834 -10 -835 0
834 -115 -10 0
834 115 -835 0
835 -10 -655 0
835 -472 -10 0
835 472 -655 0
836 -504 -837 0
836 -837 -839 0
836 504 -839 0
837 -10 -838 0
837 -115 -10 0
837 115 -838 0
838 -10 -655 0
838 -510 -10 0
838 510 -655 0
839 -542 -840 0
839 -840 -842 0
839 542 -842 0
840 -10 -841 0
840 -115 -10 0
840 115 -841 0
841 -10 -655 0
841 -548 -10 0
841 548 -655 0
842 -579 -843 0
842 -843 -845 0
842 579 -845 0
843 -10 -844 0
843 -115 -10 0
843 115 -844 0
844 -10 -655 0
844 -127 -10 0
844 127 -655 0
845 -586 -846 0
845 -846 -848 0
845 586 -848 0
846 -10 -847 0
846 -115 -10 0
846 115 -847 0
847 -10 -655 0
847 -592 -10 0
847 592 -655 0
848 -622 -843 0
848 -843 -849 0
848 622 -849 0
849 -627 -843 0
849 -843 -850 0
849 627 -850 0
85 -86 -10 0
85 86 10 0
850 -632 -843 0
850 -843 -851 0
850 632 -851 0
851 -636 -843 0
851 -843 -852 0
851 636 -852 0
852 -640 -843 0
852 -843 -853 0
852 640 -853 0
853 -644 -843 0
853 -843 -854 0
853 644 -854 0
854 -648 -843 0
854 -843 -10 0
854 648 -10 0
855 -805 -10 0
855 805 10 0
856 -857 -10 0
856 857 10 0
858 -857 -6 0
858 857 6 0
859 -806 -861 0
859 -860 -806 0
859 860 -861 0
860 -653 0
860 -803 0
861 -862 -866 0
861 -866 -868 0
861 862 -868 0
862 -658 0
862 -863 0
863 864 0
864 -805 -865 0
864 805 865 0
866 -856 -858 0
866 -867 -856 0
866 867 -858 0
867 -655 -855 0
868 -857 -869 0
868 857 869 0
87 -44 -94 0
87 -88 -44 0
87 88 -94 0
88 -89 -33 0
89 -90 -31 0
9 -10 -10 0
9 10 10 0
90 -91 -29 0
91 -92 -27 0
92 -93 -25 0
93 -54 -71 0
94 -44 -101 0
94 -95 -44 0
94 95 -101 0
95 -96 -33 0
96 -97 -31 0
97 -98 -29 0
98 -99 -27 0
99 -100 -25 0
